weniger-krumme-touren/beispiele/random/80/800.txt.solution
[79, 65, 64, 50, 51, 52, 63, 62, 61, 57, 58, 59, 60, 56, 55, 54, 53, 68, 69, 70, 71, 72, 76, 75, 74, 73, 77, 78, 67, 66, 49, 48, 47, 46, 38, 37, 43, 35, 34, 42, 29, 30, 21, 27, 31, 32, 33, 39, 45, 44, 36, 40, 41, 28, 24, 23, 22, 25, 26, 20, 19, 16, 2, 17, 1, 18, 3, 4, 14, 13, 12, 11, 5, 6, 7, 8, 15, 9, 10, 0]